\* WorkerModel *\
Minimize
OBJ: 10 i_0 + 10 i_1 + 10 i_10 + 10 i_11 + 10 i_12 + 10 i_13 + 10 i_14
 + 10 i_15 + 10 i_16 + 10 i_17 + 10 i_18 + 10 i_19 + 10 i_2 + 10 i_20
 + 10 i_21 + 10 i_22 + 10 i_23 + 10 i_24 + 10 i_25 + 10 i_26 + 10 i_27
 + 10 i_28 + 10 i_29 + 10 i_3 + 10 i_30 + 10 i_31 + 10 i_32 + 10 i_33
 + 10 i_34 + 10 i_35 + 10 i_4 + 10 i_5 + 10 i_6 + 10 i_7 + 10 i_8 + 10 i_9
 + 50 p_0 + 50 p_1 + 50 p_10 + 50 p_11 + 50 p_12 + 50 p_13 + 50 p_14 + 50 p_15
 + 50 p_16 + 50 p_17 + 50 p_18 + 50 p_19 + 50 p_2 + 50 p_20 + 50 p_21
 + 50 p_22 + 50 p_23 + 50 p_24 + 50 p_25 + 50 p_26 + 50 p_27 + 50 p_28
 + 50 p_29 + 50 p_3 + 50 p_30 + 50 p_31 + 50 p_32 + 50 p_33 + 50 p_34
 + 50 p_35 + 50 p_4 + 50 p_5 + 50 p_6 + 50 p_7 + 50 p_8 + 50 p_9 + 200 w_0
 + 200 w_1 + 200 w_10 + 200 w_11 + 200 w_12 + 200 w_13 + 200 w_14 + 200 w_15
 + 200 w_16 + 200 w_17 + 200 w_18 + 200 w_19 + 200 w_2 + 200 w_20 + 200 w_21
 + 200 w_22 + 200 w_23 + 200 w_24 + 200 w_25 + 200 w_26 + 200 w_27 + 200 w_28
 + 200 w_29 + 200 w_3 + 200 w_30 + 200 w_31 + 200 w_32 + 200 w_33 + 200 w_34
 + 200 w_35 + 200 w_4 + 200 w_5 + 200 w_6 + 200 w_7 + 200 w_8 + 200 w_9
Subject To
_C1: i_0 - p_0 = -3134
_C10: - i_2 + i_3 - p_3 = -3629
_C100: - i_32 + i_33 - p_33 = -4503
_C101: - h_33 - w_32 + w_33 = 0
_C102: p_33 - 100 w_33 <= 0
_C103: - i_33 + i_34 - p_34 = -4201
_C104: - h_34 - w_33 + w_34 = 0
_C105: p_34 - 100 w_34 <= 0
_C106: - i_34 + i_35 - p_35 = -3990
_C107: - h_35 - w_34 + w_35 = 0
_C108: p_35 - 100 w_35 <= 0
_C11: - h_3 - w_2 + w_3 = 0
_C12: p_3 - 100 w_3 <= 0
_C13: - i_3 + i_4 - p_4 = -3810
_C14: - h_4 - w_3 + w_4 = 0
_C15: p_4 - 100 w_4 <= 0
_C16: - i_4 + i_5 - p_5 = -4001
_C17: - h_5 - w_4 + w_5 = 0
_C18: p_5 - 100 w_5 <= 0
_C19: - i_5 + i_6 - p_6 = -4201
_C2: - h_0 + w_0 = 0
_C20: - h_6 - w_5 + w_6 = 0
_C21: p_6 - 100 w_6 <= 0
_C22: - i_6 + i_7 - p_7 = -4411
_C23: - h_7 - w_6 + w_7 = 0
_C24: p_7 - 100 w_7 <= 0
_C25: - i_7 + i_8 - p_8 = -3943
_C26: - h_8 - w_7 + w_8 = 0
_C27: p_8 - 100 w_8 <= 0
_C28: - i_8 + i_9 - p_9 = -3451
_C29: - h_9 - w_8 + w_9 = 0
_C3: p_0 - 100 w_0 <= 0
_C30: p_9 - 100 w_9 <= 0
_C31: i_10 - i_9 - p_10 = -3201
_C32: - h_10 + w_10 - w_9 = 0
_C33: p_10 - 100 w_10 <= 0
_C34: - i_10 + i_11 - p_11 = -3099
_C35: - h_11 - w_10 + w_11 = 0
_C36: p_11 - 100 w_11 <= 0
_C37: - i_11 + i_12 - p_12 = -3254
_C38: - h_12 - w_11 + w_12 = 0
_C39: p_12 - 100 w_12 <= 0
_C4: - i_0 + i_1 - p_1 = -3291
_C40: - i_12 + i_13 - p_13 = -3417
_C41: - h_13 - w_12 + w_13 = 0
_C42: p_13 - 100 w_13 <= 0
_C43: - i_13 + i_14 - p_14 = -3588
_C44: - h_14 - w_13 + w_14 = 0
_C45: p_14 - 100 w_14 <= 0
_C46: - i_14 + i_15 - p_15 = -3767
_C47: - h_15 - w_14 + w_15 = 0
_C48: p_15 - 100 w_15 <= 0
_C49: - i_15 + i_16 - p_16 = -3955
_C5: - h_1 - w_0 + w_1 = 0
_C50: - h_16 - w_15 + w_16 = 0
_C51: p_16 - 100 w_16 <= 0
_C52: - i_16 + i_17 - p_17 = -4153
_C53: - h_17 - w_16 + w_17 = 0
_C54: p_17 - 100 w_17 <= 0
_C55: - i_17 + i_18 - p_18 = -4361
_C56: - h_18 - w_17 + w_18 = 0
_C57: p_18 - 100 w_18 <= 0
_C58: - i_18 + i_19 - p_19 = -4579
_C59: - h_19 - w_18 + w_19 = 0
_C6: p_1 - 100 w_1 <= 0
_C60: p_19 - 100 w_19 <= 0
_C61: - i_19 + i_20 - p_20 = -4808
_C62: - h_20 - w_19 + w_20 = 0
_C63: p_20 - 100 w_20 <= 0
_C64: - i_20 + i_21 - p_21 = -4438
_C65: - h_21 - w_20 + w_21 = 0
_C66: p_21 - 100 w_21 <= 0
_C67: - i_21 + i_22 - p_22 = -4132
_C68: - h_22 - w_21 + w_22 = 0
_C69: p_22 - 100 w_22 <= 0
_C7: - i_1 + i_2 - p_2 = -3456
_C70: - i_22 + i_23 - p_23 = -3900
_C71: - h_23 - w_22 + w_23 = 0
_C72: p_23 - 100 w_23 <= 0
_C73: - i_23 + i_24 - p_24 = -4095
_C74: - h_24 - w_23 + w_24 = 0
_C75: p_24 - 100 w_24 <= 0
_C76: - i_24 + i_25 - p_25 = -4300
_C77: - h_25 - w_24 + w_25 = 0
_C78: p_25 - 100 w_25 <= 0
_C79: - i_25 + i_26 - p_26 = -4515
_C8: - h_2 - w_1 + w_2 = 0
_C80: - h_26 - w_25 + w_26 = 0
_C81: p_26 - 100 w_26 <= 0
_C82: - i_26 + i_27 - p_27 = -4741
_C83: - h_27 - w_26 + w_27 = 0
_C84: p_27 - 100 w_27 <= 0
_C85: - i_27 + i_28 - p_28 = -4978
_C86: - h_28 - w_27 + w_28 = 0
_C87: p_28 - 100 w_28 <= 0
_C88: - i_28 + i_29 - p_29 = -5227
_C89: - h_29 - w_28 + w_29 = 0
_C9: p_2 - 100 w_2 <= 0
_C90: p_29 - 100 w_29 <= 0
_C91: - i_29 + i_30 - p_30 = -5488
_C92: - h_30 - w_29 + w_30 = 0
_C93: p_30 - 100 w_30 <= 0
_C94: - i_30 + i_31 - p_31 = -4913
_C95: - h_31 - w_30 + w_31 = 0
_C96: p_31 - 100 w_31 <= 0
_C97: - i_31 + i_32 - p_32 = -4754
_C98: - h_32 - w_31 + w_32 = 0
_C99: p_32 - 100 w_32 <= 0
Bounds
 0 <= h_0
 0 <= h_1
 0 <= h_10
 0 <= h_11
 0 <= h_12
 0 <= h_13
 0 <= h_14
 0 <= h_15
 0 <= h_16
 0 <= h_17
 0 <= h_18
 0 <= h_19
 0 <= h_2
 0 <= h_20
 0 <= h_21
 0 <= h_22
 0 <= h_23
 0 <= h_24
 0 <= h_25
 0 <= h_26
 0 <= h_27
 0 <= h_28
 0 <= h_29
 0 <= h_3
 0 <= h_30
 0 <= h_31
 0 <= h_32
 0 <= h_33
 0 <= h_34
 0 <= h_35
 0 <= h_4
 0 <= h_5
 0 <= h_6
 0 <= h_7
 0 <= h_8
 0 <= h_9
 p_0 <= 4500
 p_1 <= 4500
 p_10 <= 4500
 p_11 <= 4500
 p_12 <= 4500
 p_13 <= 4500
 p_14 <= 4500
 p_15 <= 4500
 p_16 <= 4500
 p_17 <= 4500
 p_18 <= 4500
 p_19 <= 4500
 p_2 <= 4500
 p_20 <= 4500
 p_21 <= 4500
 p_22 <= 4500
 p_23 <= 4500
 p_24 <= 4500
 p_25 <= 4500
 p_26 <= 4500
 p_27 <= 4500
 p_28 <= 4500
 p_29 <= 4500
 p_3 <= 4500
 p_30 <= 4500
 p_31 <= 4500
 p_32 <= 4500
 p_33 <= 4500
 p_34 <= 4500
 p_35 <= 4500
 p_4 <= 4500
 p_5 <= 4500
 p_6 <= 4500
 p_7 <= 4500
 p_8 <= 4500
 p_9 <= 4500
Generals
h_0
h_1
h_10
h_11
h_12
h_13
h_14
h_15
h_16
h_17
h_18
h_19
h_2
h_20
h_21
h_22
h_23
h_24
h_25
h_26
h_27
h_28
h_29
h_3
h_30
h_31
h_32
h_33
h_34
h_35
h_4
h_5
h_6
h_7
h_8
h_9
End
